004 004 003 003 002 001 001 001 006 006 005 003 006 007 009 005 008 007 004 007 010 021 033 029 029 028 039 037 020 011 011
003 003 003 003 002 002 001 002 002 008 006 006 008 006 009 007 005 006 009 010 013 013 037 025 020 026 034 031 021 013 007
001 002 002 002 001 001 002 002 002 005 006 006 007 006 009 007 004 005 006 008 012 015 023 031 016 022 042 030 021 012 008
000 000 001 001 001 001 001 001 001 003 004 004 004 005 006 005 003 005 007 011 009 017 012 018 025 022 039 029 014 006 007
000 000 000 000 000 000 000 000 000 001 000 002 003 004 005 006 005 006 008 008 006 008 006 007 013 021 018 015 010 011 006
000 000 000 000 000 000 000 000 000 000 000 001 002 002 006 008 005 004 005 007 009 005 004 004 005 012 012 011 011 013 004
000 000 000 000 000 000 000 000 000 000 000 000 001 002 003 004 005 006 003 007 016 008 004 003 004 007 004 008 011 010 004
000 000 000 000 000 000 000 000 000 000 000 000 000 001 001 002 002 003 002 005 011 023 006 002 003 004 003 006 011 006 004
000 000 000 000 000 000 000 000 000 000 000 000 000 000 000 001 001 001 001 005 009 025 010 005 003 004 004 008 005 004 004
000 000 000 000 000 000 000 000 000 000 000 000 000 000 000 000 000 001 002 004 006 018 010 004 005 004 004 009 006 004 005
000 000 000 000 000 000 000 000 000 000 000 000 000 000 000 000 000 000 001 001 007 012 011 006 004 006 010 011 004 003 005
000 000 000 000 000 000 000 000 000 000 001 001 001 001 000 000 000 000 001 003 003 011 009 007 003 005 006 005 005 002 004
000 000 000 000 000 001 000 000 000 001 001 002 001 001 000 000 000 000 001 003 004 004 011 006 002 003 005 003 005 004 002
000 000 000 000 000 000 000 000 000 001 001 001 002 002 001 000 001 001 001 000 002 003 005 003 001 002 003 002 003 002 002
000 000 000 000 000 000 000 000 000 000 000 001 001 001 001 000 001 001 000 001 002 003 004 001 001 002 002 002 002 001 001
000 000 001 000 000 000 000 000 000 000 001 001 002 001 001 000 001 001 000 001 001 003 002 001 001 001 001 002 003 002 001
000 000 001 001 000 000 000 000 000 000 001 001 002 003 004 001 001 001 000 000 002 003 002 000 001 000 000 002 003 006 002
000 000 000 001 001 000 000 000 000 000 001 003 003 010 006 002 002 000 000 000 000 001 001 000 002 000 001 002 004 006 002
000 001 001 001 001 000 000 000 000 000 003 003 005 010 006 003 003 001 000 000 001 001 001 001 001 001 000 002 003 003 001
000 001 001 002 001 000 000 000 000 001 002 005 005 006 005 004 001 001 000 000 000 000 000 001 002 001 001 002 002 002 002
000 000 000 000 001 000 001 000 000 000 001 002 004 005 003 003 001 001 001 001 000 000 000 -99 -99 001 001 003 003 003 003
000 000 000 000 000 000 000 000 000 000 000 001 003 004 002 001 000 000 001 001 000 000 000 -99 -99 001 001 -99 -99 011 007
000 000 000 000 000 000 000 000 000 000 000 001 002 004 002 001 000 000 001 001 000 000 000 -99 -99 001 001 -99 -99 015 007
001 000 000 000 000 000 000 000 000 000 000 001 002 003 002 001 001 000 001 001 000 000 000 -99 -99 -99 -99 -99 -99 019 006
001 001 001 000 000 000 000 000 000 001 001 004 001 001 003 001 000 000 000 000 000 000 001 -99 -99 -99 -99 -99 -99 011 005
001 000 000 000 000 000 000 000 001 001 001 001 002 001 002 001 000 000 000 000 000 001 000 -99 -99 -99 -99 -99 006 008 008
000 000 000 000 000 001 001 001 003 003 003 004 007 003 002 004 003 000 000 000 000 000 000 -99 -99 -99 006 -99 -99 002 003
000 000 000 000 000 001 001 000 002 004 003 005 006 004 006 005 002 000 000 000 000 000 000 -99 -99 -99 007 007 001 002 004
000 000 000 000 000 000 000 000 001 004 002 003 006 006 003 010 002 000 000 000 001 001 -99 -99 -99 006 008 008 001 002 005
000 000 000 000 000 000 000 000 000 001 001 001 002 004 004 006 003 000 000 000 003 001 -99 -99 001 006 009 010 -99 002 005
000 000 000 000 000 000 000 000 000 000 000 001 002 003 003 004 002 000 000 000 000 000 -99 001 001 004 008 009 005 003 003
000 000 000 000 000 000 000 000 000 000 000 001 003 001 001 001 000 000 000 000 001 001 002 001 001 004 010 006 006 003 002
000 000 000 000 000 000 000 000 000 000 000 001 003 002 001 001 000 000 000 000 002 003 003 001 001 006 010 008 007 010 002
002 000 000 000 000 000 000 000 000 000 000 001 002 001 000 000 000 000 000 000 002 004 005 001 001 006 013 009 008 010 003
002 002 001 000 000 000 000 000 000 000 000 000 000 000 000 000 000 000 000 000 001 006 006 004 006 009 010 008 009 010 003
002 003 000 000 000 000 000 000 000 000 000 000 000 000 000 000 000 000 000 000 000 003 004 011 015 010 009 006 009 003 002
002 002 001 000 000 000 000 000 000 000 000 000 000 000 000 000 000 000 000 000 000 001 005 010 012 005 006 003 005 001 002
001 001 002 001 000 000 000 000 000 000 000 000 000 000 000 000 000 000 000 000 000 002 007 009 006 002 002 002 001 001 002
001 001 001 000 000 000 000 000 000 000 000 000 000 000 000 001 000 000 000 000 000 002 002 003 003 001 001 003 001 001 001
001 001 000 000 000 000 000 000 000 000 000 000 000 000 000 001 001 000 000 -99 000 000 001 001 001 002 004 002 002 001 000
000 000 000 000 000 000 000 000 000 000 000 000 000 000 000 000 000 000 000 000 000 000 000 000 000 001 004 002 003 000 000
000 000 000 000 000 000 000 000 000 000 000 000 000 000 000 000 000 000 000 000 000 000 000 000 000 002 004 002 001 000 000
000 000 000 000 000 000 000 000 000 000 000 000 000 000 000 000 000 000 000 000 000 -99 -99 000 000 003 004 002 000 000 000
000 000 000 000 000 000 000 000 000 000 000 000 000 000 000 000 000 000 000 000 000 -99 000 000 000 002 003 003 001 001 000
000 000 000 -99 000 000 000 000 000 000 000 000 000 001 000 000 000 000 000 000 000 -99 000 000 000 002 002 004 003 002 -99
000 000 -99 000 000 000 000 000 000 000 000 000 000 002 001 002 001 000 000 000 000 000 000 000 000 000 002 006 007 003 000
000 000 000 000 000 000 000 000 000 000 000 000 001 003 001 002 001 000 000 000 000 000 000 000 000 000 004 008 014 003 000
000 -99 000 000 000 000 000 000 000 000 000 000 001 002 001 001 001 000 000 000 000 000 000 -99 000 000 004 006 007 003 000
000 000 000 000 000 000 000 000 000 000 000 000 002 001 000 001 000 000 000 000 000 000 000 -99 -99 000 001 004 005 000 000
000 -99 -99 -99 -99 000 000 000 000 000 001 001 001 001 000 000 000 001 000 000 000 000 -99 -99 -99 000 000 002 001 000 000
000 -99 -99 -99 -99 000 000 000 000 000 002 003 001 000 000 000 000 001 000 000 -99 000 -99 -99 -99 -99 000 000 000 000 000
000 -99 -99 -99 -99 -99 000 000 000 002 005 004 002 006 002 001 001 001 000 000 000 -99 -99 -99 -99 000 000 000 000 000 -99
-99 -99 -99 -99 -99 000 000 000 000 001 005 006 004 008 004 001 002 001 000 000 000 000 -99 -99 -99 -99 -99 000 000 -99 -99
-99 -99 -99 -99 -99 -99 000 000 000 002 002 002 013 010 006 002 005 001 000 000 001 001 -99 -99 -99 -99 -99 -99 -99 -99 -99
-99 -99 -99 -99 -99 -99 000 000 001 003 002 002 004 009 004 005 005 001 000 006 001 001 -99 -99 -99 -99 -99 -99 -99 -99 -99
